% demand
num_movements = 28;
loading_factor = [1600, 1450, 900, 2000, 1000, 1950, 1000, 800, 1050, 1150, 2000, 1000, 1100, 1150, 1050, 1950, 900, 950, 900, 1300, 1500, 800, 1000, 2000, 1750, 1450, 800, 1250];
pickup_time = [0, 0, 0, 0, 0, 1, 1, 1, 1, 3, 3, 3, 3, 3, 5, 5, 5, 6, 6, 6, 6, 7, 8, 9, 9, 9, 9, 10];
delivery_time = [1, 1, 1, 2, 1, 2, 2, 2, 2, 5, 8, 5, 6, 5, 6, 6, 6, 8, 7, 8, 7, 9, 11, 10, 11, 11, 11, 11];

% transporter definition
total_capacity = 7000;
num_decks = 3;
capacity = [3000, 1000, 3000];

% ways out of decks
num_ways_out = 1;
paths_out = array3d(decks, ways_out, decks, [
% ways out of deck d1
2, 3, 0, 

% ways out of deck d2
3, 0, 0, 

% ways out of deck d3
0, 0, 0,	

]);

